270 5
10 10 10 10 10 

0 0 0 0 0 0 5 2 34 66 98 130 
0 0 0 0 0 0 7 3 4 5 8 11 31 32 
9 4 0 4 3 0 4 26 12 7 6 
3 8 0 9 3 0 6 27 26 25 24 23 9 
8 5 0 5 7 0 4 30 29 27 9 
1 6 0 9 4 0 3 24 18 9 
10 7 0 10 10 0 3 21 13 10 
1 8 0 6 10 0 5 28 27 23 14 12 
5 7 0 10 6 0 2 21 10 
3 4 0 9 7 0 3 22 17 14 
2 10 0 9 8 0 2 26 13 
10 5 0 9 7 0 3 24 21 16 
6 9 0 9 6 0 2 25 17 
1 9 0 4 8 0 1 15 
5 10 0 10 6 0 1 16 
3 10 0 5 10 0 1 19 
1 6 0 6 10 0 1 20 
1 10 0 3 10 0 1 23 
3 5 0 10 6 0 1 33 
9 9 0 9 9 0 1 33 
10 10 0 8 8 0 1 33 
9 7 0 5 10 0 1 33 
7 6 0 8 6 0 1 33 
7 4 0 10 10 0 1 33 
9 7 0 8 9 0 1 33 
2 10 0 7 7 0 1 33 
3 9 0 8 6 0 1 33 
3 9 0 7 8 0 1 33 
8 7 0 10 10 0 1 33 
4 9 0 8 8 0 1 33 
1 8 0 3 10 0 1 33 
3 7 0 7 3 0 1 33 
0 0 0 0 0 0 1 234 
0 0 0 0 0 0 6 35 36 37 38 39 40 
8 8 2 0 4 0 3 43 42 41 
10 5 8 0 8 0 3 52 43 41 
1 6 5 0 7 0 2 43 41 
8 10 10 0 10 0 4 46 45 44 42 
3 4 8 0 7 0 4 46 45 44 42 
7 8 10 0 9 0 2 42 41 
2 7 10 0 7 0 5 50 48 47 45 44 
6 6 5 0 10 0 4 52 50 48 47 
4 7 8 0 4 0 2 49 46 
5 7 10 0 10 0 3 54 53 51 
5 7 9 0 6 0 3 54 53 51 
5 8 8 0 7 0 3 54 53 51 
10 8 8 0 9 0 2 54 51 
3 4 9 0 9 0 2 54 51 
3 8 3 0 8 0 2 54 51 
9 9 8 0 10 0 1 51 
7 4 5 0 9 0 4 64 61 56 55 
8 10 3 0 8 0 2 55 53 
7 10 6 0 10 0 4 64 61 59 57 
5 10 10 0 4 0 3 61 57 55 
2 7 8 0 7 0 2 63 59 
4 8 6 0 7 0 1 57 
7 9 8 0 3 0 1 58 
6 6 10 0 4 0 2 63 62 
9 10 10 0 10 0 1 60 
2 9 9 0 8 0 1 62 
2 6 4 0 10 0 1 63 
1 7 10 0 7 0 1 65 
1 7 6 0 10 0 1 65 
3 10 9 0 3 0 1 65 
0 0 0 0 0 0 1 234 
0 0 0 0 0 0 6 67 68 69 70 71 76 
2 7 0 4 0 3 5 84 82 74 73 72 
6 4 0 8 0 7 5 82 81 80 74 73 
9 10 0 10 0 2 4 84 80 74 73 
6 10 0 6 0 10 4 85 84 73 72 
4 10 0 8 0 10 3 85 84 72 
5 7 0 6 0 7 4 86 81 80 79 
7 10 0 6 0 7 3 79 78 77 
10 10 0 9 0 9 1 75 
7 7 0 7 0 9 3 86 85 83 
4 5 0 8 0 9 2 86 79 
6 10 0 4 0 6 2 86 83 
7 8 0 3 0 8 2 86 83 
6 6 0 7 0 5 1 83 
2 5 0 7 0 7 1 83 
3 5 0 7 0 8 1 83 
8 8 0 7 0 9 1 83 
10 8 0 5 0 10 5 96 95 92 88 87 
5 10 0 10 0 4 2 92 86 
8 8 0 10 0 6 2 95 87 
4 7 0 9 0 9 4 96 95 94 91 
1 9 0 9 0 9 2 94 90 
1 6 0 10 0 8 1 89 
4 10 0 7 0 9 2 94 93 
1 7 0 10 0 6 1 91 
1 5 0 9 0 10 1 93 
2 3 0 6 0 8 1 94 
5 5 0 8 0 10 1 97 
10 7 0 9 0 8 1 97 
10 8 0 6 0 7 1 97 
2 10 0 10 0 5 1 97 
0 0 0 0 0 0 1 234 
0 0 0 0 0 0 6 99 100 101 102 104 128 
4 4 0 2 0 3 4 112 106 105 103 
6 8 0 4 0 8 5 127 118 110 107 106 
2 3 0 8 0 9 5 118 117 112 110 107 
10 9 0 9 0 10 5 125 121 117 110 107 
3 8 0 10 0 5 4 121 118 117 107 
10 5 0 4 0 7 5 126 122 113 112 109 
3 10 0 10 0 4 3 122 109 108 
3 10 0 5 0 7 5 122 121 117 116 113 
1 8 0 7 0 7 2 122 108 
9 9 0 9 0 10 3 124 116 113 
1 6 0 9 0 9 3 121 116 114 
6 10 0 6 0 10 2 123 111 
9 7 0 9 0 5 1 113 
6 8 0 6 0 3 2 121 115 
5 6 0 10 0 8 1 114 
6 6 0 8 0 10 1 115 
3 10 0 8 0 10 1 119 
5 10 0 9 0 8 1 120 
1 5 0 9 0 7 1 123 
7 9 0 6 0 10 1 123 
1 10 0 5 0 10 1 129 
2 6 0 6 0 4 1 129 
2 10 0 10 0 10 1 129 
3 6 0 7 0 7 1 129 
9 9 0 10 0 4 1 129 
3 9 0 10 0 8 1 129 
8 8 0 8 0 6 1 129 
3 7 0 6 0 10 1 129 
3 4 0 5 0 10 1 129 
4 5 0 10 0 6 1 129 
0 0 0 0 0 0 1 234 
0 0 0 0 0 0 5 131 132 134 135 140 
10 0 0 0 0 1 3 138 136 133 
8 0 0 0 0 9 3 139 138 136 
8 0 0 0 0 8 1 137 
1 0 0 0 0 10 1 137 
7 0 0 0 0 10 1 136 
3 0 0 0 0 9 1 141 
4 0 0 0 0 7 1 141 
2 0 0 0 0 8 1 141 
4 0 0 0 0 7 1 141 
2 0 0 0 0 6 1 141 
0 0 0 0 0 0 3 142 164 176 
0 0 0 0 0 0 10 143 144 146 147 157 158 159 160 161 162 
6 2 0 0 0 3 3 156 155 145 
6 6 0 0 0 7 4 153 152 151 149 
3 3 0 0 0 9 3 153 151 148 
6 9 0 0 0 5 2 154 152 
8 3 0 0 0 10 2 152 151 
2 8 0 0 0 8 1 149 
3 10 0 0 0 8 1 150 
2 10 0 0 0 5 1 163 
3 7 0 0 0 9 1 163 
1 10 0 0 0 6 1 163 
5 9 0 0 0 10 1 163 
2 9 0 0 0 10 1 163 
6 10 0 0 0 10 1 163 
9 9 0 0 0 5 1 163 
8 8 0 0 0 9 1 163 
2 8 0 0 0 6 1 163 
10 8 0 0 0 8 1 163 
6 7 0 0 0 4 1 163 
10 7 0 0 0 10 1 163 
3 7 0 0 0 8 1 163 
0 0 0 0 0 0 1 234 
0 0 0 0 0 0 3 165 166 167 
5 0 3 0 0 0 4 172 171 169 168 
1 0 10 0 0 0 4 174 172 170 169 
7 0 1 0 0 0 3 173 171 169 
1 0 10 0 0 0 1 170 
10 0 10 0 0 0 1 175 
7 0 7 0 0 0 1 175 
8 0 8 0 0 0 1 175 
3 0 9 0 0 0 1 175 
6 0 9 0 0 0 1 175 
1 0 8 0 0 0 1 175 
0 0 0 0 0 0 3 198 210 222 
0 0 0 0 0 0 6 177 178 179 180 181 182 
10 0 1 0 0 4 6 191 187 186 185 184 183 
4 0 10 0 0 8 5 191 187 185 184 183 
10 0 10 0 0 9 5 189 187 186 185 183 
4 0 10 0 0 5 4 187 185 184 183 
6 0 7 0 0 8 4 187 186 185 183 
7 0 2 0 0 5 4 196 195 189 186 
3 0 10 0 0 4 4 196 195 194 188 
1 0 6 0 0 6 3 195 194 189 
1 0 9 0 0 10 3 196 194 190 
7 0 10 0 0 7 2 194 188 
8 0 9 0 0 10 3 195 193 192 
9 0 10 0 0 8 1 190 
4 0 7 0 0 10 1 190 
5 0 7 0 0 7 2 193 192 
10 0 8 0 0 10 2 194 192 
9 0 9 0 0 8 1 197 
5 0 4 0 0 10 1 197 
7 0 10 0 0 3 1 197 
9 0 5 0 0 10 1 197 
9 0 6 0 0 8 1 197 
0 0 0 0 0 0 1 234 
0 0 0 0 0 0 5 199 201 202 207 208 
4 0 0 0 3 0 3 206 203 200 
5 0 0 0 6 0 2 205 204 
1 0 0 0 10 0 2 204 203 
8 0 0 0 6 0 1 203 
8 0 0 0 10 0 1 209 
2 0 0 0 6 0 1 209 
10 0 0 0 10 0 1 209 
10 0 0 0 9 0 1 209 
9 0 0 0 5 0 1 209 
1 0 0 0 10 0 1 209 
0 0 0 0 0 0 1 234 
0 0 0 0 0 0 2 211 212 
1 4 0 0 0 0 4 216 215 214 213 
5 5 0 0 0 0 4 216 215 214 213 
10 8 0 0 0 0 4 220 219 218 217 
9 10 0 0 0 0 4 220 219 218 217 
4 10 0 0 0 0 4 220 219 218 217 
4 5 0 0 0 0 4 220 219 218 217 
7 7 0 0 0 0 1 221 
5 10 0 0 0 0 1 221 
10 6 0 0 0 0 1 221 
3 10 0 0 0 0 1 221 
0 0 0 0 0 0 1 234 
0 0 0 0 0 0 4 223 224 225 232 
4 0 0 3 0 0 5 231 230 228 227 226 
2 0 0 8 0 0 4 230 228 227 226 
5 0 0 7 0 0 2 230 226 
3 0 0 8 0 0 1 229 
4 0 0 3 0 0 1 229 
9 0 0 6 0 0 1 229 
1 0 0 10 0 0 1 233 
7 0 0 10 0 0 1 233 
6 0 0 10 0 0 1 233 
4 0 0 10 0 0 1 233 
0 0 0 0 0 0 1 234 
0 0 0 0 0 0 2 235 247 
0 0 0 0 0 0 5 236 238 243 244 245 
2 0 0 3 0 0 4 242 241 239 237 
7 0 0 6 0 0 1 240 
1 0 0 10 0 0 1 239 
2 0 0 9 0 0 1 246 
1 0 0 4 0 0 1 246 
1 0 0 9 0 0 1 246 
9 0 0 8 0 0 1 246 
7 0 0 9 0 0 1 246 
2 0 0 8 0 0 1 246 
10 0 0 9 0 0 1 246 
0 0 0 0 0 0 1 259 
0 0 0 0 0 0 5 248 249 251 252 253 
3 0 4 0 0 0 3 257 256 250 
9 0 7 0 0 0 2 256 250 
8 0 8 0 0 0 2 255 254 
4 0 5 0 0 0 2 257 255 
1 0 10 0 0 0 1 256 
6 0 10 0 0 0 1 254 
8 0 8 0 0 0 1 258 
6 0 7 0 0 0 1 258 
10 0 8 0 0 0 1 258 
7 0 8 0 0 0 1 258 
0 0 0 0 0 0 1 259 
0 0 0 0 0 0 7 260 262 263 266 267 268 269 
3 0 0 3 0 0 1 261 
4 0 0 9 0 0 2 265 264 
5 0 0 3 0 0 2 265 264 
10 0 0 10 0 0 1 264 
1 0 0 10 0 0 1 270 
2 0 0 6 0 0 1 270 
3 0 0 10 0 0 1 270 
1 0 0 10 0 0 1 270 
2 0 0 6 0 0 1 270 
2 0 0 8 0 0 1 270 
0 0 0 0 0 0 0 
